language ESSENCE' 1.0
letting AssignmentMatrix be [[1, 0, 1, 0, 0, 1, 0, 1, 0, 0, 0, 0, 1, 0, 1, 1, 0, 0, 0, 1, 0, 1, 1, 1, 0], 
[0, 1, 0, 1, 1, 0, 0, 0, 1, 1, 1, 1, 0, 0, 0, 0, 0, 0, 1, 0, 0, 0, 0, 0, 0], 
[0, 0, 0, 0, 0, 0, 0, 0, 0, 0, 0, 0, 0, 0, 0, 0, 0, 0, 0, 0, 0, 0, 0, 0, 0], 
[0, 0, 0, 0, 0, 0, 1, 0, 0, 0, 0, 0, 0, 0, 0, 0, 0, 1, 0, 0, 1, 0, 0, 0, 1], 
[0, 0, 0, 0, 0, 0, 0, 0, 0, 0, 0, 0, 1, 0, 0, 1, 0, 0, 0, 0, 0, 0, 0, 0, 0]]
letting CPU be [2, 4, 2, 4, 4, 2, 4, 2, 4, 4, 4, 2, 8, 53, 2, 8, 7, 4, 4, 2, 4, 2, 2, 2, 4]
letting Memory be [3750, 7500, 3750, 7500, 7500, 3750, 7500, 3750, 7500, 7500, 7500, 3750, 15000, 488003, 3750, 15000, 488005, 7500, 7500, 3750, 7500, 3750, 3750, 3750, 7500]
letting Price be [116, 210, 116, 210, 210, 116, 210, 116, 210, 210, 210, 126, 420, 6, 116, 420, 0, 210, 210, 116, 210, 116, 116, 116, 210]
letting Storage be [2000, 2000, 2000, 2000, 2000, 2000, 2000, 2000, 2000, 2000, 2000, 2000, 2000, 12004, 2000, 2000, 12005, 2000, 2000, 2000, 2000, 2000, 2000, 2000, 2000]
letting VMType be [433, 341, 433, 341, 341, 433, 341, 433, 341, 341, 341, 464, 278, 1, 433, 278, 1, 341, 341, 433, 341, 433, 433, 433, 341]
